nNurses = 119;
nHours = 38;
minHours = 10;
maxHours = 14;
maxConsec = 8;
maxPresence = 26;
demand = [37, 32, 37, 35, 40, 40, 37, 37, 39, 36, 39, 34, 33, 34, 38, 37, 32, 32, 37, 33, 34, 39, 36, 39, 37, 32, 28, 25, 29, 25, 22, 19, 23, 25, 29, 33, 35, 34];
